NAME 
ROWS
 N  OBJ
 L  R0      
 E  R1      
 E  R2      
 E  R3      
 E  R4      
 E  R5      
 E  R6      
 E  R7      
 E  R8      
 E  R9      
 E  R10     
COLUMNS
    MARKER    'MARKER'                 'INTORG'
    I0(8)     OBJ       27
    I0(8)     R0        -37
    I0(8)     R1        -1
    I0(8)     R2        7
    I0(8)     R3        9
    I0(8)     R4        5
    I0(8)     R5        19
    I0(8)     R6        5
    I0(8)     R10       1
    I1(7)     OBJ       -60
    I1(7)     R0        181
    I1(7)     R2        9
    I1(7)     R3        15
    I1(7)     R4        18
    I1(7)     R5        8
    I1(7)     R6        -1
    I1(7)     R10       1
    I2(7)     OBJ       91
    I2(7)     R0        -180
    I2(7)     R1        1
    I2(7)     R2        19
    I2(7)     R3        1
    I2(7)     R5        -1
    I2(7)     R6        15
    I2(7)     R10       1
    I3(6)     OBJ       121
    I3(6)     R0        -110
    I3(6)     R1        7
    I3(6)     R2        3
    I3(6)     R3        7
    I3(6)     R4        8
    I3(6)     R10       1
    I4(6)     OBJ       -165
    I4(6)     R0        93
    I4(6)     R1        2
    I4(6)     R2        16
    I4(6)     R5        -1
    I4(6)     R6        16
    I4(6)     R10       1
    I5(6)     OBJ       -47
    I5(6)     R0        -33
    I5(6)     R1        3
    I5(6)     R3        18
    I5(6)     R4        -1
    I5(6)     R6        5
    I5(6)     R10       1
    MARKER    'MARKER'                 'INTEND'
    C6(10)    OBJ       -3
    C6(10)    R0        -10
    C6(10)    R1        -1
    C6(10)    R2        8
    C6(10)    R3        19
    C6(10)    R4        4
    C6(10)    R5        9
    C6(10)    R6        2
    C6(10)    R7        -1
    C6(10)    R8        14
    C6(10)    R9        17
    C7(5)     OBJ       1
    C7(5)     R0        -2
    C7(5)     R1        19
    C7(5)     R5        16
    C7(5)     R6        -1
    C7(5)     R7        2
    C8(7)     OBJ       7
    C8(7)     R0        -5
    C8(7)     R1        12
    C8(7)     R2        17
    C8(7)     R3        14
    C8(7)     R4        1
    C8(7)     R6        2
    C8(7)     R7        6
    C9(8)     OBJ       9
    C9(8)     R0        6
    C9(8)     R3        16
    C9(8)     R4        1
    C9(8)     R5        9
    C9(8)     R6        19
    C9(8)     R7        3
    C9(8)     R8        6
    C9(8)     R9        4
    C10(1)    R1        1
    C11(1)    R2        1
    C12(1)    R3        1
    C13(1)    R4        1
    C14(1)    R5        1
    C15(1)    R6        1
    C16(1)    R7        1
    C17(1)    R8        1
    C18(1)    R9        1
    C19(1)    R10       1
RHS
    RHS1      R0        151
    RHS1      R1        90
    RHS1      R2        60
    RHS1      R3        89
    RHS1      R4        52
    RHS1      R5        94
    RHS1      R6        51
    RHS1      R7        87
    RHS1      R8        99
    RHS1      R9        80
    RHS1      R10       2
BOUNDS
 UP BND1      I0(8)     2
 UP BND1      I1(7)     2
 UP BND1      I2(7)     2
 UP BND1      I3(6)     2
 UP BND1      I4(6)     2
 UP BND1      I5(6)     2
ENDATA
